NAME : A-n5-k2
COMMENT : (Augerat et al, No of trucks: 2, Optimal value: 29)
TYPE : CVRP
DIMENSION : 5
EDGE_WEIGHT_TYPE : EUC_2D 
CAPACITY : 2
NODE_COORD_SECTION 
 1 0 0
 2 6 0
 3 6 4
 4 3 0
 5 0 4
DEMAND_SECTION 
1 0 
2 1 
3 1 
4 1 
5 1  
DEPOT_SECTION 
 1  
 -1  
EOF 
